p cnf 566
-9 -177
-10 -180
-11 -183
-12 -186
-13 -189
-14 -192
-15 -195
-16 -198
-17 199
-18 200
-19 201
-20 202
-21 203
-22 -10
-22 -11
10 11 22
-23 -12
-23 -13
12 13 23
-24 -14
-24 -15
14 15 24
-25 -16
-25 -17
16 17 25
-26 -18
-26 -19
18 19 26
-27 -20
-27 -21
20 21 27
-28 22
-28 23
-22 -23 28
-29 24
-29 25
-24 -25 29
-30 26
-30 27
-26 -27 30
-31 28
-31 29
-28 -29 31
-32 30
-32 31
-30 -31 32
-33 -9
-33 10
9 -10 33
-34 9
-34 -10
-9 10 34
-35 -33
-35 -34
33 34 35
-36 9
-36 10
-9 -10 36
-37 -9
-37 -35
9 35 37
-38 9
-38 35
-9 -35 38
-39 -37
-39 -38
37 38 39
-40 9
-40 -35
-9 35 40
-41 -36
-41 -40
36 40 41
-42 -10
-42 11
10 -11 42
-43 10
-43 -11
-10 11 43
-44 -42
-44 -43
42 43 44
-45 10
-45 11
-10 -11 45
-46 41
-46 -44
-41 44 46
-47 -41
-47 44
41 -44 47
-48 -46
-48 -47
46 47 48
-49 -41
-49 -44
41 44 49
-50 -45
-50 -49
45 49 50
-51 -11
-51 12
11 -12 51
-52 11
-52 -12
-11 12 52
-53 -51
-53 -52
51 52 53
-54 11
-54 12
-11 -12 54
-55 50
-55 -53
-50 53 55
-56 -50
-56 53
50 -53 56
-57 -55
-57 -56
55 56 57
-58 -50
-58 -53
50 53 58
-59 -54
-59 -58
54 58 59
-60 -12
-60 13
12 -13 60
-61 12
-61 -13
-12 13 61
-62 -60
-62 -61
60 61 62
-63 12
-63 13
-12 -13 63
-64 59
-64 -62
-59 62 64
-65 -59
-65 62
59 -62 65
-66 -64
-66 -65
64 65 66
-67 -59
-67 -62
59 62 67
-68 -63
-68 -67
63 67 68
-69 -13
-69 14
13 -14 69
-70 13
-70 -14
-13 14 70
-71 -69
-71 -70
69 70 71
-72 13
-72 14
-13 -14 72
-73 68
-73 -71
-68 71 73
-74 -68
-74 71
68 -71 74
-75 -73
-75 -74
73 74 75
-76 -68
-76 -71
68 71 76
-77 -72
-77 -76
72 76 77
-78 -14
-78 15
14 -15 78
-79 14
-79 -15
-14 15 79
-80 -78
-80 -79
78 79 80
-81 14
-81 15
-14 -15 81
-82 77
-82 -80
-77 80 82
-83 -77
-83 80
77 -80 83
-84 -82
-84 -83
82 83 84
-85 -77
-85 -80
77 80 85
-86 -81
-86 -85
81 85 86
-87 -15
-87 16
15 -16 87
-88 15
-88 -16
-15 16 88
-89 -87
-89 -88
87 88 89
-90 15
-90 16
-15 -16 90
-91 86
-91 -89
-86 89 91
-92 -86
-92 89
86 -89 92
-93 -91
-93 -92
91 92 93
-94 -86
-94 -89
86 89 94
-95 -90
-95 -94
90 94 95
-96 -16
-96 17
16 -17 96
-97 16
-97 -17
-16 17 97
-98 -96
-98 -97
96 97 98
-99 16
-99 17
-16 -17 99
-100 95
-100 -98
-95 98 100
-101 -95
-101 98
95 -98 101
-102 -100
-102 -101
100 101 102
-103 -95
-103 -98
95 98 103
-104 -99
-104 -103
99 103 104
-105 -17
-105 18
17 -18 105
-106 17
-106 -18
-17 18 106
-107 -105
-107 -106
105 106 107
-108 17
-108 18
-17 -18 108
-109 104
-109 -107
-104 107 109
-110 -104
-110 107
104 -107 110
-111 -109
-111 -110
109 110 111
-112 -104
-112 -107
104 107 112
-113 -108
-113 -112
108 112 113
-114 -18
-114 19
18 -19 114
-115 18
-115 -19
-18 19 115
-116 -114
-116 -115
114 115 116
-117 18
-117 19
-18 -19 117
-118 113
-118 -116
-113 116 118
-119 -113
-119 116
113 -116 119
-120 -118
-120 -119
118 119 120
-121 -113
-121 -116
113 116 121
-122 -117
-122 -121
117 121 122
-123 -19
-123 20
19 -20 123
-124 19
-124 -20
-19 20 124
-125 -123
-125 -124
123 124 125
-126 19
-126 20
-19 -20 126
-127 122
-127 -125
-122 125 127
-128 -122
-128 125
122 -125 128
-129 -127
-129 -128
127 128 129
-130 -122
-130 -125
122 125 130
-131 -126
-131 -130
126 130 131
-132 -20
-132 21
20 -21 132
-133 20
-133 -21
-20 21 133
-134 -132
-134 -133
132 133 134
-135 20
-135 21
-20 -21 135
-136 131
-136 -134
-131 134 136
-137 -131
-137 134
131 -134 137
-138 -136
-138 -137
136 137 138
-139 -131
-139 -134
131 134 139
-140 -135
-140 -139
135 139 140
-141 9
-141 -39
-9 39 141
-142 -9
-142 11
9 -11 142
-143 -141
-143 -142
141 142 143
-144 9
-144 -48
-9 48 144
-145 -9
-145 12
9 -12 145
-146 -144
-146 -145
144 145 146
-147 9
-147 -57
-9 57 147
-148 -9
-148 13
9 -13 148
-149 -147
-149 -148
147 148 149
-150 9
-150 -66
-9 66 150
-151 -9
-151 14
9 -14 151
-152 -150
-152 -151
150 151 152
-153 9
-153 -75
-9 75 153
-154 -9
-154 15
9 -15 154
-155 -153
-155 -154
153 154 155
-156 9
-156 -84
-9 84 156
-157 -9
-157 16
9 -16 157
-158 -156
-158 -157
156 157 158
-159 9
-159 -93
-9 93 159
-160 -9
-160 17
9 -17 160
-161 -159
-161 -160
159 160 161
-162 9
-162 -102
-9 102 162
-163 -9
-163 18
9 -18 163
-164 -162
-164 -163
162 163 164
-165 9
-165 -111
-9 111 165
-166 -9
-166 19
9 -19 166
-167 -165
-167 -166
165 166 167
-168 9
-168 -120
-9 120 168
-169 -9
-169 20
9 -20 169
-170 -168
-170 -169
168 169 170
-171 9
-171 -129
-9 129 171
-172 -9
-172 21
9 -21 172
-173 -171
-173 -172
171 172 173
-174 9
-174 -138
-9 138 174
-175 1
-175 32
-1 -32 175
-176 -32
-176 33
32 -33 176
-177 -175
-177 -176
175 176 177
-178 2
-178 32
-2 -32 178
-179 -32
-179 -143
32 143 179
-180 -178
-180 -179
178 179 180
-181 3
-181 32
-3 -32 181
-182 -32
-182 -146
32 146 182
-183 -181
-183 -182
181 182 183
-184 4
-184 32
-4 -32 184
-185 -32
-185 -149
32 149 185
-186 -184
-186 -185
184 185 186
-187 5
-187 32
-5 -32 187
-188 -32
-188 -152
32 152 188
-189 -187
-189 -188
187 188 189
-190 6
-190 32
-6 -32 190
-191 -32
-191 -155
32 155 191
-192 -190
-192 -191
190 191 192
-193 7
-193 32
-7 -32 193
-194 -32
-194 -158
32 158 194
-195 -193
-195 -194
193 194 195
-196 8
-196 32
-8 -32 196
-197 -32
-197 -161
32 161 197
-198 -196
-198 -197
196 197 198
-199 -32
-199 -164
32 164 199
-200 -32
-200 -167
32 167 200
-201 -32
-201 -170
32 170 201
-202 -32
-202 -173
32 173 202
-203 -32
-203 174
32 -174 203
-204 -21
-204 140
21 -140 204
-205 9
-205 -204
-9 204 205
205
